\ENCODING=ISO-8859-1
\Problem name: IloCplex

Maximize
 obj: 10.0248400465468 x(27,34) - 9.10430980161651 x(0,33)
      + 4.93868368574604 x(18,25) + 4.69181551621963 x(0,4)
      - 3.86764689075607 x(17,24) + 1.53957593515776 x(11,22)
      + 0.135746562113109 x(5,19) - 9.10430980161651 x(29,33)
      - 5.51987835446576 x(4,23) + 2.87764342931634 x(10,26)
      - 9.77464801460228 x(13,18) + 7.25735853570249 x(19,21)
      + 8.68451156383629 x(6,30) + 9.02480463643873 x(24,32)
      + 0.732697905633682 x(13,27) + 4.8352084305797 x(12,28)
      + 2.87764342931634 x(3,26) + 1.53957593515776 x(20,22)
      + 11.2918240516186 x(8,9) + 7.25735853570249 x(1,21)
      - 9.10430980161651 x(23,33) - 5.51987835446576 x(20,23)
      + 4.8352084305797 x(6,28) + 7.25735853570249 x(3,21)
      + 12.3287522167896 x(4,7) + 2.87764342931634 x(23,26)
      + 0.732697905633682 x(23,27) - 0.553078488178594 x(2,6)
      - 9.10430980161651 x(31,33) - 0.553078488178594 x(4,6)
      + 20.0188576209832 x(6,13) - 3.86764689075607 x(15,24)
      + 4.93868368574604 x(14,25) - 2.54352993690017 x(7,8)
      + 38.5237143975965 x(8,11) + 9.02480463643873 x(2,32)
      + 8.68451156383629 x(12,30) - 0.553078488178594 x(1,6)
      + 11.2918240516186 x(1,9) + 13.9728397431153 x(8,15)
      + 11.0303167778696 x(2,17) + 38.908608381386 x(5,16)
      + 13.9728397431153 x(13,15) + 1.53957593515776 x(13,22)
      + 0.732697905633682 x(21,27) + 8.68451156383629 x(10,30)
      + 0.135746562113109 x(4,19) - 5.51987835446576 x(15,23)
      + 8.68451156383629 x(2,30) + 4.93868368574604 x(21,25)
      + 14.9319565507968 x(6,31) + 8.74829411471844 x(0,2)
      + 10.0248400465468 x(20,34) - 0.553078488178594 x(0,6)
      + 12.3287522167896 x(1,7) + 14.9319565507968 x(1,31)
      + 14.9319565507968 x(0,31) + 26.387001445924 x(14,29)
      + 11.2918240516186 x(2,9) + 0.732697905633682 x(34,27)
      + 0.296321021144761 x(33,0) - 9.77464801460228 x(25,18)
      + 0.296321021144761 x(4,0) + 11.0303167778696 x(24,17)
      + 38.5237143975965 x(22,11) + 0.868777997523896 x(19,5)
      + 26.387001445924 x(33,29) + 4.69181551621963 x(23,4)
      + 38.5213046108852 x(26,10) + 20.0188576209832 x(18,13)
      + 0.135746562113109 x(21,19) - 0.553078488178594 x(30,6)
      - 3.86764689075607 x(32,24) + 20.0188576209832 x(27,13)
      + 38.4186762572397 x(28,12) + 23.6345613165008 x(26,3)
      + 13.2211676706521 x(22,20) - 2.54352993690017 x(9,8)
      + 15.8026599654871 x(21,1) - 5.51987835446576 x(33,23)
      + 13.2211676706521 x(23,20) - 0.553078488178594 x(28,6)
      + 23.6345613165008 x(21,3) + 4.69181551621963 x(7,4)
      - 5.51987835446576 x(26,23) - 5.51987835446576 x(27,23)
      + 8.74829411471844 x(6,2) + 14.9319565507968 x(33,31)
      + 4.69181551621963 x(6,4) - 0.553078488178594 x(13,6)
      + 13.9728397431153 x(24,15) + 21.6087849172346 x(25,14)
      + 12.3287522167896 x(8,7) - 2.54352993690017 x(11,8)
      + 8.74829411471844 x(32,2) + 38.4186762572397 x(30,12)
      + 15.8026599654871 x(6,1) + 15.8026599654871 x(9,1)
      - 2.54352993690017 x(15,8) + 8.74829411471844 x(17,2)
      + 0.868777997523896 x(16,5) + 20.0188576209832 x(15,13)
      + 20.0188576209832 x(22,13) + 7.25735853570249 x(27,21)
      + 38.5213046108852 x(30,10) + 4.69181551621963 x(19,4)
      + 13.9728397431153 x(23,15) + 8.74829411471844 x(30,2)
      + 7.25735853570249 x(25,21) - 0.553078488178594 x(31,6)
      + 0.296321021144761 x(2,0) + 13.2211676706521 x(34,20)
      + 0.296321021144761 x(6,0) + 15.8026599654871 x(7,1)
      + 15.8026599654871 x(31,1) + 0.296321021144761 x(31,0)
      + 21.6087849172346 x(29,14) + 8.74829411471844 x(9,2)
      + 10.070969035747 x(35,0) + 25.5773079800893 x(35,1)
      + 18.5229421293207 x(35,2) + 33.409209331103 x(35,3)
      + 14.4664635308219 x(35,4) + 10.6434260121262 x(35,5)
      + 9.22156952642368 x(35,6) + 22.1034002313919 x(35,7)
      + 7.2311180777021 x(35,8) + 21.0664720662209 x(35,9)
      + 48.2959526254875 x(35,10) + 48.2983624121988 x(35,11)
      + 48.193324271842 x(35,12) + 29.7935056355855 x(35,13)
      + 31.3834329318369 x(35,14) + 23.7474877577176 x(35,15)
      + 48.6832563959882 x(35,16) + 20.8049647924718 x(35,17)
      + 9.91039457671538 x(35,19) + 22.9958156852543 x(35,20)
      + 17.0320065503048 x(35,21) + 11.31422394976 x(35,22)
      + 4.25476966013651 x(35,23) + 5.90700112384621 x(35,24)
      + 14.7133317003483 x(35,25) + 12.6522914439186 x(35,26)
      + 10.507345920236 x(35,27) + 14.609856445182 x(35,28)
      + 36.1616494605263 x(35,29) + 18.4591595784386 x(35,30)
      + 24.7066045653991 x(35,31) + 18.799452651041 x(35,32)
      + 0.67033821298577 x(35,33) + 19.799488061149 x(35,34) - 48.6832563959882
Subject To
 Cons_OneOutgoingArc(0):     x(33,0) + x(4,0) + x(2,0) + x(6,0) + x(31,0)
                             + x(35,0) - y(0)  = 0
 Cons_OneOutgoingArc(1):     x(21,1) + x(6,1) + x(9,1) + x(7,1) + x(31,1)
                             + x(35,1) - y(1)  = 0
 Cons_OneOutgoingArc(2):     x(0,2) + x(6,2) + x(32,2) + x(17,2) + x(30,2)
                             + x(9,2) + x(35,2) - y(2)  = 0
 Cons_OneOutgoingArc(3):     x(26,3) + x(21,3) + x(35,3) - y(3)  = 0
 Cons_OneOutgoingArc(4):     x(0,4) + x(23,4) + x(7,4) + x(6,4) + x(19,4)
                             + x(35,4) - y(4)  = 0
 Cons_OneOutgoingArc(5):     x(19,5) + x(16,5) + x(35,5) - y(5)  = 0
 Cons_OneOutgoingArc(6):     x(2,6) + x(4,6) + x(1,6) + x(0,6) + x(30,6)
                             + x(28,6) + x(13,6) + x(31,6) + x(35,6) - y(6)
                              = 0
 Cons_OneOutgoingArc(7):     x(4,7) + x(1,7) + x(8,7) + x(35,7) - y(7)  = 0
 Cons_OneOutgoingArc(8):     x(7,8) + x(9,8) + x(11,8) + x(15,8) + x(35,8)
                             - y(8)  = 0
 Cons_OneOutgoingArc(9):     x(8,9) + x(1,9) + x(2,9) + x(35,9) - y(9)  = 0
 Cons_OneOutgoingArc(10):    x(26,10) + x(30,10) + x(35,10) - y(10)  = 0
 Cons_OneOutgoingArc(11):    x(8,11) + x(22,11) + x(35,11) - y(11)  = 0
 Cons_OneOutgoingArc(12):    x(28,12) + x(30,12) + x(35,12) - y(12)  = 0
 Cons_OneOutgoingArc(13):    x(6,13) + x(18,13) + x(27,13) + x(15,13)
                             + x(22,13) + x(35,13) - y(13)  = 0
 Cons_OneOutgoingArc(14):    x(25,14) + x(29,14) + x(35,14) - y(14)  = 0
 Cons_OneOutgoingArc(15):    x(8,15) + x(13,15) + x(24,15) + x(23,15)
                             + x(35,15) - y(15)  = 0
 Cons_OneOutgoingArc(16):    x(5,16) + x(35,16) - y(16)  = 0
 Cons_OneOutgoingArc(17):    x(2,17) + x(24,17) + x(35,17) - y(17)  = 0
 Cons_OneOutgoingArc(18):    x(13,18) + x(25,18) + x(35,18) - y(18)  = 0
 Cons_OneOutgoingArc(19):    x(5,19) + x(4,19) + x(21,19) + x(35,19) - y(19)
                              = 0
 Cons_OneOutgoingArc(20):    x(22,20) + x(23,20) + x(34,20) + x(35,20) - y(20)
                              = 0
 Cons_OneOutgoingArc(21):    x(19,21) + x(1,21) + x(3,21) + x(27,21) + x(25,21)
                             + x(35,21) - y(21)  = 0
 Cons_OneOutgoingArc(22):    x(11,22) + x(20,22) + x(13,22) + x(35,22) - y(22)
                              = 0
 Cons_OneOutgoingArc(23):    x(4,23) + x(20,23) + x(15,23) + x(33,23)
                             + x(26,23) + x(27,23) + x(35,23) - y(23)  = 0
 Cons_OneOutgoingArc(24):    x(17,24) + x(15,24) + x(32,24) + x(35,24) - y(24)
                              = 0
 Cons_OneOutgoingArc(25):    x(18,25) + x(14,25) + x(21,25) + x(35,25) - y(25)
                              = 0
 Cons_OneOutgoingArc(26):    x(10,26) + x(3,26) + x(23,26) + x(35,26) - y(26)
                              = 0
 Cons_OneOutgoingArc(27):    x(13,27) + x(23,27) + x(21,27) + x(34,27)
                             + x(35,27) - y(27)  = 0
 Cons_OneOutgoingArc(28):    x(12,28) + x(6,28) + x(35,28) - y(28)  = 0
 Cons_OneOutgoingArc(29):    x(14,29) + x(33,29) + x(35,29) - y(29)  = 0
 Cons_OneOutgoingArc(30):    x(6,30) + x(12,30) + x(10,30) + x(2,30) + x(35,30)
                             - y(30)  = 0
 Cons_OneOutgoingArc(31):    x(6,31) + x(1,31) + x(0,31) + x(33,31) + x(35,31)
                             - y(31)  = 0
 Cons_OneOutgoingArc(32):    x(24,32) + x(2,32) + x(35,32) - y(32)  = 0
 Cons_OneOutgoingArc(33):    x(0,33) + x(29,33) + x(23,33) + x(31,33)
                             + x(35,33) - y(33)  = 0
 Cons_OneOutgoingArc(34):    x(27,34) + x(20,34) + x(35,34) - y(34)  = 0
 Cons_ExactlyOneArcFromRoot: x(35,0) + x(35,1) + x(35,2) + x(35,3) + x(35,4)
                             + x(35,5) + x(35,6) + x(35,7) + x(35,8) + x(35,9)
                             + x(35,10) + x(35,11) + x(35,12) + x(35,13)
                             + x(35,14) + x(35,15) + x(35,16) + x(35,17)
                             + x(35,18) + x(35,19) + x(35,20) + x(35,21)
                             + x(35,22) + x(35,23) + x(35,24) + x(35,25)
                             + x(35,26) + x(35,27) + x(35,28) + x(35,29)
                             + x(35,30) + x(35,31) + x(35,32) + x(35,33)
                             + x(35,34)  = 1
 Cons_LoopsOfSizeTwo(0)1:    - x(27,34) - x(34,27) + y(27) >= 0
 Cons_LoopsOfSizeTwo(0)2:    - x(27,34) - x(34,27) + y(34) >= 0
 Cons_LoopsOfSizeTwo(1)1:    - x(0,33) - x(33,0) + y(0) >= 0
 Cons_LoopsOfSizeTwo(1)2:    - x(0,33) - x(33,0) + y(33) >= 0
 Cons_LoopsOfSizeTwo(2)1:    - x(18,25) - x(25,18) + y(18) >= 0
 Cons_LoopsOfSizeTwo(2)2:    - x(18,25) - x(25,18) + y(25) >= 0
 Cons_LoopsOfSizeTwo(3)1:    - x(0,4) - x(4,0) + y(0) >= 0
 Cons_LoopsOfSizeTwo(3)2:    - x(0,4) - x(4,0) + y(4) >= 0
 Cons_LoopsOfSizeTwo(4)1:    - x(17,24) - x(24,17) + y(17) >= 0
 Cons_LoopsOfSizeTwo(4)2:    - x(17,24) - x(24,17) + y(24) >= 0
 Cons_LoopsOfSizeTwo(5)1:    - x(11,22) - x(22,11) + y(11) >= 0
 Cons_LoopsOfSizeTwo(5)2:    - x(11,22) - x(22,11) + y(22) >= 0
 Cons_LoopsOfSizeTwo(6)1:    - x(5,19) - x(19,5) + y(5) >= 0
 Cons_LoopsOfSizeTwo(6)2:    - x(5,19) - x(19,5) + y(19) >= 0
 Cons_LoopsOfSizeTwo(7)1:    - x(29,33) - x(33,29) + y(29) >= 0
 Cons_LoopsOfSizeTwo(7)2:    - x(29,33) - x(33,29) + y(33) >= 0
 Cons_LoopsOfSizeTwo(8)1:    - x(4,23) - x(23,4) + y(4) >= 0
 Cons_LoopsOfSizeTwo(8)2:    - x(4,23) - x(23,4) + y(23) >= 0
 Cons_LoopsOfSizeTwo(9)1:    - x(10,26) - x(26,10) + y(10) >= 0
 Cons_LoopsOfSizeTwo(9)2:    - x(10,26) - x(26,10) + y(26) >= 0
 Cons_LoopsOfSizeTwo(10)1:   - x(13,18) - x(18,13) + y(13) >= 0
 Cons_LoopsOfSizeTwo(10)2:   - x(13,18) - x(18,13) + y(18) >= 0
 Cons_LoopsOfSizeTwo(11)1:   - x(19,21) - x(21,19) + y(19) >= 0
 Cons_LoopsOfSizeTwo(11)2:   - x(19,21) - x(21,19) + y(21) >= 0
 Cons_LoopsOfSizeTwo(12)1:   - x(6,30) - x(30,6) + y(6) >= 0
 Cons_LoopsOfSizeTwo(12)2:   - x(6,30) - x(30,6) + y(30) >= 0
 Cons_LoopsOfSizeTwo(13)1:   - x(24,32) - x(32,24) + y(24) >= 0
 Cons_LoopsOfSizeTwo(13)2:   - x(24,32) - x(32,24) + y(32) >= 0
 Cons_LoopsOfSizeTwo(14)1:   - x(13,27) - x(27,13) + y(13) >= 0
 Cons_LoopsOfSizeTwo(14)2:   - x(13,27) - x(27,13) + y(27) >= 0
 Cons_LoopsOfSizeTwo(15)1:   - x(12,28) - x(28,12) + y(12) >= 0
 Cons_LoopsOfSizeTwo(15)2:   - x(12,28) - x(28,12) + y(28) >= 0
 Cons_LoopsOfSizeTwo(16)1:   - x(3,26) - x(26,3) + y(3) >= 0
 Cons_LoopsOfSizeTwo(16)2:   - x(3,26) - x(26,3) + y(26) >= 0
 Cons_LoopsOfSizeTwo(17)1:   - x(20,22) - x(22,20) + y(20) >= 0
 Cons_LoopsOfSizeTwo(17)2:   - x(20,22) - x(22,20) + y(22) >= 0
 Cons_LoopsOfSizeTwo(18)1:   - x(8,9) - x(9,8) + y(8) >= 0
 Cons_LoopsOfSizeTwo(18)2:   - x(8,9) - x(9,8) + y(9) >= 0
 Cons_LoopsOfSizeTwo(19)1:   - x(1,21) - x(21,1) + y(1) >= 0
 Cons_LoopsOfSizeTwo(19)2:   - x(1,21) - x(21,1) + y(21) >= 0
 Cons_LoopsOfSizeTwo(20)1:   - x(23,33) - x(33,23) + y(23) >= 0
 Cons_LoopsOfSizeTwo(20)2:   - x(23,33) - x(33,23) + y(33) >= 0
 Cons_LoopsOfSizeTwo(21)1:   - x(20,23) - x(23,20) + y(20) >= 0
 Cons_LoopsOfSizeTwo(21)2:   - x(20,23) - x(23,20) + y(23) >= 0
 Cons_LoopsOfSizeTwo(22)1:   - x(6,28) - x(28,6) + y(6) >= 0
 Cons_LoopsOfSizeTwo(22)2:   - x(6,28) - x(28,6) + y(28) >= 0
 Cons_LoopsOfSizeTwo(23)1:   - x(3,21) - x(21,3) + y(3) >= 0
 Cons_LoopsOfSizeTwo(23)2:   - x(3,21) - x(21,3) + y(21) >= 0
 Cons_LoopsOfSizeTwo(24)1:   - x(4,7) - x(7,4) + y(4) >= 0
 Cons_LoopsOfSizeTwo(24)2:   - x(4,7) - x(7,4) + y(7) >= 0
 Cons_LoopsOfSizeTwo(25)1:   - x(23,26) - x(26,23) + y(23) >= 0
 Cons_LoopsOfSizeTwo(25)2:   - x(23,26) - x(26,23) + y(26) >= 0
 Cons_LoopsOfSizeTwo(26)1:   - x(23,27) - x(27,23) + y(23) >= 0
 Cons_LoopsOfSizeTwo(26)2:   - x(23,27) - x(27,23) + y(27) >= 0
 Cons_LoopsOfSizeTwo(27)1:   - x(2,6) - x(6,2) + y(2) >= 0
 Cons_LoopsOfSizeTwo(27)2:   - x(2,6) - x(6,2) + y(6) >= 0
 Cons_LoopsOfSizeTwo(28)1:   - x(31,33) - x(33,31) + y(31) >= 0
 Cons_LoopsOfSizeTwo(28)2:   - x(31,33) - x(33,31) + y(33) >= 0
 Cons_LoopsOfSizeTwo(29)1:   - x(4,6) - x(6,4) + y(4) >= 0
 Cons_LoopsOfSizeTwo(29)2:   - x(4,6) - x(6,4) + y(6) >= 0
 Cons_LoopsOfSizeTwo(30)1:   - x(6,13) - x(13,6) + y(6) >= 0
 Cons_LoopsOfSizeTwo(30)2:   - x(6,13) - x(13,6) + y(13) >= 0
 Cons_LoopsOfSizeTwo(31)1:   - x(15,24) - x(24,15) + y(15) >= 0
 Cons_LoopsOfSizeTwo(31)2:   - x(15,24) - x(24,15) + y(24) >= 0
 Cons_LoopsOfSizeTwo(32)1:   - x(14,25) - x(25,14) + y(14) >= 0
 Cons_LoopsOfSizeTwo(32)2:   - x(14,25) - x(25,14) + y(25) >= 0
 Cons_LoopsOfSizeTwo(33)1:   - x(7,8) - x(8,7) + y(7) >= 0
 Cons_LoopsOfSizeTwo(33)2:   - x(7,8) - x(8,7) + y(8) >= 0
 Cons_LoopsOfSizeTwo(34)1:   - x(8,11) - x(11,8) + y(8) >= 0
 Cons_LoopsOfSizeTwo(34)2:   - x(8,11) - x(11,8) + y(11) >= 0
 Cons_LoopsOfSizeTwo(35)1:   - x(2,32) - x(32,2) + y(2) >= 0
 Cons_LoopsOfSizeTwo(35)2:   - x(2,32) - x(32,2) + y(32) >= 0
 Cons_LoopsOfSizeTwo(36)1:   - x(12,30) - x(30,12) + y(12) >= 0
 Cons_LoopsOfSizeTwo(36)2:   - x(12,30) - x(30,12) + y(30) >= 0
 Cons_LoopsOfSizeTwo(37)1:   - x(1,6) - x(6,1) + y(1) >= 0
 Cons_LoopsOfSizeTwo(37)2:   - x(1,6) - x(6,1) + y(6) >= 0
 Cons_LoopsOfSizeTwo(38)1:   - x(1,9) - x(9,1) + y(1) >= 0
 Cons_LoopsOfSizeTwo(38)2:   - x(1,9) - x(9,1) + y(9) >= 0
 Cons_LoopsOfSizeTwo(39)1:   - x(8,15) - x(15,8) + y(8) >= 0
 Cons_LoopsOfSizeTwo(39)2:   - x(8,15) - x(15,8) + y(15) >= 0
 Cons_LoopsOfSizeTwo(40)1:   - x(2,17) - x(17,2) + y(2) >= 0
 Cons_LoopsOfSizeTwo(40)2:   - x(2,17) - x(17,2) + y(17) >= 0
 Cons_LoopsOfSizeTwo(41)1:   - x(5,16) - x(16,5) + y(5) >= 0
 Cons_LoopsOfSizeTwo(41)2:   - x(5,16) - x(16,5) + y(16) >= 0
 Cons_LoopsOfSizeTwo(42)1:   - x(13,15) - x(15,13) + y(13) >= 0
 Cons_LoopsOfSizeTwo(42)2:   - x(13,15) - x(15,13) + y(15) >= 0
 Cons_LoopsOfSizeTwo(43)1:   - x(13,22) - x(22,13) + y(13) >= 0
 Cons_LoopsOfSizeTwo(43)2:   - x(13,22) - x(22,13) + y(22) >= 0
 Cons_LoopsOfSizeTwo(44)1:   - x(21,27) - x(27,21) + y(21) >= 0
 Cons_LoopsOfSizeTwo(44)2:   - x(21,27) - x(27,21) + y(27) >= 0
 Cons_LoopsOfSizeTwo(45)1:   - x(10,30) - x(30,10) + y(10) >= 0
 Cons_LoopsOfSizeTwo(45)2:   - x(10,30) - x(30,10) + y(30) >= 0
 Cons_LoopsOfSizeTwo(46)1:   - x(4,19) - x(19,4) + y(4) >= 0
 Cons_LoopsOfSizeTwo(46)2:   - x(4,19) - x(19,4) + y(19) >= 0
 Cons_LoopsOfSizeTwo(47)1:   - x(15,23) - x(23,15) + y(15) >= 0
 Cons_LoopsOfSizeTwo(47)2:   - x(15,23) - x(23,15) + y(23) >= 0
 Cons_LoopsOfSizeTwo(48)1:   - x(2,30) - x(30,2) + y(2) >= 0
 Cons_LoopsOfSizeTwo(48)2:   - x(2,30) - x(30,2) + y(30) >= 0
 Cons_LoopsOfSizeTwo(49)1:   - x(21,25) - x(25,21) + y(21) >= 0
 Cons_LoopsOfSizeTwo(49)2:   - x(21,25) - x(25,21) + y(25) >= 0
 Cons_LoopsOfSizeTwo(50)1:   - x(6,31) - x(31,6) + y(6) >= 0
 Cons_LoopsOfSizeTwo(50)2:   - x(6,31) - x(31,6) + y(31) >= 0
 Cons_LoopsOfSizeTwo(51)1:   - x(0,2) - x(2,0) + y(0) >= 0
 Cons_LoopsOfSizeTwo(51)2:   - x(0,2) - x(2,0) + y(2) >= 0
 Cons_LoopsOfSizeTwo(52)1:   - x(20,34) - x(34,20) + y(20) >= 0
 Cons_LoopsOfSizeTwo(52)2:   - x(20,34) - x(34,20) + y(34) >= 0
 Cons_LoopsOfSizeTwo(53)1:   - x(0,6) - x(6,0) + y(0) >= 0
 Cons_LoopsOfSizeTwo(53)2:   - x(0,6) - x(6,0) + y(6) >= 0
 Cons_LoopsOfSizeTwo(54)1:   - x(1,7) - x(7,1) + y(1) >= 0
 Cons_LoopsOfSizeTwo(54)2:   - x(1,7) - x(7,1) + y(7) >= 0
 Cons_LoopsOfSizeTwo(55)1:   - x(1,31) - x(31,1) + y(1) >= 0
 Cons_LoopsOfSizeTwo(55)2:   - x(1,31) - x(31,1) + y(31) >= 0
 Cons_LoopsOfSizeTwo(56)1:   - x(0,31) - x(31,0) + y(0) >= 0
 Cons_LoopsOfSizeTwo(56)2:   - x(0,31) - x(31,0) + y(31) >= 0
 Cons_LoopsOfSizeTwo(57)1:   - x(14,29) - x(29,14) + y(14) >= 0
 Cons_LoopsOfSizeTwo(57)2:   - x(14,29) - x(29,14) + y(29) >= 0
 Cons_LoopsOfSizeTwo(58)1:   - x(2,9) - x(9,2) + y(2) >= 0
 Cons_LoopsOfSizeTwo(58)2:   - x(2,9) - x(9,2) + y(9) >= 0
 Cons_UpperBound:            3 x(27,34) + 3 x(0,33) + 4 x(18,25) + 4 x(0,4)
                             + 5 x(17,24) + 8 x(11,22) + 10 x(5,19)
                             + 15 x(29,33) + 18 x(4,23) + 18 x(10,26)
                             + 19 x(13,18) + 23 x(19,21) + 23 x(6,30)
                             + 23 x(24,32) + 23 x(13,27) + 28 x(12,28)
                             + 29 x(3,26) + 31 x(20,22) + 32 x(8,9)
                             + 33 x(1,21) + 33 x(23,33) + 34 x(20,23)
                             + 35 x(6,28) + 37 x(3,21) + 38 x(4,7)
                             + 40 x(23,26) + 41 x(23,27) + 43 x(2,6)
                             + 44 x(31,33) + 49 x(4,6) + 49 x(6,13)
                             + 50 x(15,24) + 50 x(14,25) + 52 x(7,8)
                             + 53 x(8,11) + 54 x(2,32) + 54 x(12,30)
                             + 55 x(1,6) + 61 x(1,9) + 65 x(8,15) + 66 x(2,17)
                             + 66 x(5,16) + 68 x(13,15) + 68 x(13,22)
                             + 73 x(21,27) + 74 x(10,30) + 77 x(4,19)
                             + 79 x(15,23) + 80 x(2,30) + 80 x(21,25)
                             + 80 x(6,31) + 82 x(0,2) + 86 x(20,34) + 87 x(0,6)
                             + 88 x(1,7) + 89 x(1,31) + 92 x(0,31)
                             + 94 x(14,29) + 98 x(2,9) + 3 x(34,27) + 3 x(33,0)
                             + 4 x(25,18) + 4 x(4,0) + 5 x(24,17) + 8 x(22,11)
                             + 10 x(19,5) + 15 x(33,29) + 18 x(23,4)
                             + 18 x(26,10) + 19 x(18,13) + 23 x(21,19)
                             + 23 x(30,6) + 23 x(32,24) + 23 x(27,13)
                             + 28 x(28,12) + 29 x(26,3) + 31 x(22,20)
                             + 32 x(9,8) + 33 x(21,1) + 33 x(33,23)
                             + 34 x(23,20) + 35 x(28,6) + 37 x(21,3)
                             + 38 x(7,4) + 40 x(26,23) + 41 x(27,23)
                             + 43 x(6,2) + 44 x(33,31) + 49 x(6,4) + 49 x(13,6)
                             + 50 x(24,15) + 50 x(25,14) + 52 x(8,7)
                             + 53 x(11,8) + 54 x(32,2) + 54 x(30,12)
                             + 55 x(6,1) + 61 x(9,1) + 65 x(15,8) + 66 x(17,2)
                             + 66 x(16,5) + 68 x(15,13) + 68 x(22,13)
                             + 73 x(27,21) + 74 x(30,10) + 77 x(19,4)
                             + 79 x(23,15) + 80 x(30,2) + 80 x(25,21)
                             + 80 x(31,6) + 82 x(2,0) + 86 x(34,20) + 87 x(6,0)
                             + 88 x(7,1) + 89 x(31,1) + 92 x(31,0)
                             + 94 x(29,14) + 98 x(9,2) <= 2
 objective_constraint:       10.0248400465468 x(27,34)
                             - 9.10430980161651 x(0,33)
                             + 4.93868368574604 x(18,25)
                             + 4.69181551621963 x(0,4)
                             - 3.86764689075607 x(17,24)
                             + 1.53957593515776 x(11,22)
                             + 0.135746562113109 x(5,19)
                             - 9.10430980161651 x(29,33)
                             - 5.51987835446576 x(4,23)
                             + 2.87764342931634 x(10,26)
                             - 9.77464801460228 x(13,18)
                             + 7.25735853570249 x(19,21)
                             + 8.68451156383629 x(6,30)
                             + 9.02480463643873 x(24,32)
                             + 0.732697905633682 x(13,27)
                             + 4.8352084305797 x(12,28)
                             + 2.87764342931634 x(3,26)
                             + 1.53957593515776 x(20,22)
                             + 11.2918240516186 x(8,9)
                             + 7.25735853570249 x(1,21)
                             - 9.10430980161651 x(23,33)
                             - 5.51987835446576 x(20,23)
                             + 4.8352084305797 x(6,28)
                             + 7.25735853570249 x(3,21)
                             + 12.3287522167896 x(4,7)
                             + 2.87764342931634 x(23,26)
                             + 0.732697905633682 x(23,27)
                             - 0.553078488178594 x(2,6)
                             - 9.10430980161651 x(31,33)
                             - 0.553078488178594 x(4,6)
                             + 20.0188576209832 x(6,13)
                             - 3.86764689075607 x(15,24)
                             + 4.93868368574604 x(14,25)
                             - 2.54352993690017 x(7,8)
                             + 38.5237143975965 x(8,11)
                             + 9.02480463643873 x(2,32)
                             + 8.68451156383629 x(12,30)
                             - 0.553078488178594 x(1,6)
                             + 11.2918240516186 x(1,9)
                             + 13.9728397431153 x(8,15)
                             + 11.0303167778696 x(2,17)
                             + 38.908608381386 x(5,16)
                             + 13.9728397431153 x(13,15)
                             + 1.53957593515776 x(13,22)
                             + 0.732697905633682 x(21,27)
                             + 8.68451156383629 x(10,30)
                             + 0.135746562113109 x(4,19)
                             - 5.51987835446576 x(15,23)
                             + 8.68451156383629 x(2,30)
                             + 4.93868368574604 x(21,25)
                             + 14.9319565507968 x(6,31)
                             + 8.74829411471844 x(0,2)
                             + 10.0248400465468 x(20,34)
                             - 0.553078488178594 x(0,6)
                             + 12.3287522167896 x(1,7)
                             + 14.9319565507968 x(1,31)
                             + 14.9319565507968 x(0,31)
                             + 26.387001445924 x(14,29)
                             + 11.2918240516186 x(2,9)
                             + 0.732697905633682 x(34,27)
                             + 0.296321021144761 x(33,0)
                             - 9.77464801460228 x(25,18)
                             + 0.296321021144761 x(4,0)
                             + 11.0303167778696 x(24,17)
                             + 38.5237143975965 x(22,11)
                             + 0.868777997523896 x(19,5)
                             + 26.387001445924 x(33,29)
                             + 4.69181551621963 x(23,4)
                             + 38.5213046108852 x(26,10)
                             + 20.0188576209832 x(18,13)
                             + 0.135746562113109 x(21,19)
                             - 0.553078488178594 x(30,6)
                             - 3.86764689075607 x(32,24)
                             + 20.0188576209832 x(27,13)
                             + 38.4186762572397 x(28,12)
                             + 23.6345613165008 x(26,3)
                             + 13.2211676706521 x(22,20)
                             - 2.54352993690017 x(9,8)
                             + 15.8026599654871 x(21,1)
                             - 5.51987835446576 x(33,23)
                             + 13.2211676706521 x(23,20)
                             - 0.553078488178594 x(28,6)
                             + 23.6345613165008 x(21,3)
                             + 4.69181551621963 x(7,4)
                             - 5.51987835446576 x(26,23)
                             - 5.51987835446576 x(27,23)
                             + 8.74829411471844 x(6,2)
                             + 14.9319565507968 x(33,31)
                             + 4.69181551621963 x(6,4)
                             - 0.553078488178594 x(13,6)
                             + 13.9728397431153 x(24,15)
                             + 21.6087849172346 x(25,14)
                             + 12.3287522167896 x(8,7)
                             - 2.54352993690017 x(11,8)
                             + 8.74829411471844 x(32,2)
                             + 38.4186762572397 x(30,12)
                             + 15.8026599654871 x(6,1)
                             + 15.8026599654871 x(9,1)
                             - 2.54352993690017 x(15,8)
                             + 8.74829411471844 x(17,2)
                             + 0.868777997523896 x(16,5)
                             + 20.0188576209832 x(15,13)
                             + 20.0188576209832 x(22,13)
                             + 7.25735853570249 x(27,21)
                             + 38.5213046108852 x(30,10)
                             + 4.69181551621963 x(19,4)
                             + 13.9728397431153 x(23,15)
                             + 8.74829411471844 x(30,2)
                             + 7.25735853570249 x(25,21)
                             - 0.553078488178594 x(31,6)
                             + 0.296321021144761 x(2,0)
                             + 13.2211676706521 x(34,20)
                             + 0.296321021144761 x(6,0)
                             + 15.8026599654871 x(7,1)
                             + 15.8026599654871 x(31,1)
                             + 0.296321021144761 x(31,0)
                             + 21.6087849172346 x(29,14)
                             + 8.74829411471844 x(9,2)
                             + 10.070969035747 x(35,0)
                             + 25.5773079800893 x(35,1)
                             + 18.5229421293207 x(35,2)
                             + 33.409209331103 x(35,3)
                             + 14.4664635308219 x(35,4)
                             + 10.6434260121262 x(35,5)
                             + 9.22156952642368 x(35,6)
                             + 22.1034002313919 x(35,7)
                             + 7.2311180777021 x(35,8)
                             + 21.0664720662209 x(35,9)
                             + 48.2959526254875 x(35,10)
                             + 48.2983624121988 x(35,11)
                             + 48.193324271842 x(35,12)
                             + 29.7935056355855 x(35,13)
                             + 31.3834329318369 x(35,14)
                             + 23.7474877577176 x(35,15)
                             + 48.6832563959882 x(35,16)
                             + 20.8049647924718 x(35,17)
                             + 9.91039457671538 x(35,19)
                             + 22.9958156852543 x(35,20)
                             + 17.0320065503048 x(35,21)
                             + 11.31422394976 x(35,22)
                             + 4.25476966013651 x(35,23)
                             + 5.90700112384621 x(35,24)
                             + 14.7133317003483 x(35,25)
                             + 12.6522914439186 x(35,26)
                             + 10.507345920236 x(35,27)
                             + 14.609856445182 x(35,28)
                             + 36.1616494605263 x(35,29)
                             + 18.4591595784386 x(35,30)
                             + 24.7066045653991 x(35,31)
                             + 18.799452651041 x(35,32)
                             + 0.67033821298577 x(35,33)
                             + 19.799488061149 x(35,34) >= 48.6832563959882
Bounds
 0 <= x(27,34) <= 1
 0 <= x(0,33) <= 1
 0 <= x(18,25) <= 1
 0 <= x(0,4) <= 1
 0 <= x(17,24) <= 1
 0 <= x(11,22) <= 1
 0 <= x(5,19) <= 1
 0 <= x(29,33) <= 1
 0 <= x(4,23) <= 1
 0 <= x(10,26) <= 1
 0 <= x(13,18) <= 1
 0 <= x(19,21) <= 1
 0 <= x(6,30) <= 1
 0 <= x(24,32) <= 1
 0 <= x(13,27) <= 1
 0 <= x(12,28) <= 1
 0 <= x(3,26) <= 1
 0 <= x(20,22) <= 1
 0 <= x(8,9) <= 1
 0 <= x(1,21) <= 1
 0 <= x(23,33) <= 1
 0 <= x(20,23) <= 1
 0 <= x(6,28) <= 1
 0 <= x(3,21) <= 1
 0 <= x(4,7) <= 1
 0 <= x(23,26) <= 1
 0 <= x(23,27) <= 1
 0 <= x(2,6) <= 1
 0 <= x(31,33) <= 1
 0 <= x(4,6) <= 1
 0 <= x(6,13) <= 1
 0 <= x(15,24) <= 1
 0 <= x(14,25) <= 1
 0 <= x(7,8) <= 1
 0 <= x(8,11) <= 1
 0 <= x(2,32) <= 1
 0 <= x(12,30) <= 1
 0 <= x(1,6) <= 1
 0 <= x(1,9) <= 1
 0 <= x(8,15) <= 1
 0 <= x(2,17) <= 1
 0 <= x(5,16) <= 1
 0 <= x(13,15) <= 1
 0 <= x(13,22) <= 1
 0 <= x(21,27) <= 1
 0 <= x(10,30) <= 1
 0 <= x(4,19) <= 1
 0 <= x(15,23) <= 1
 0 <= x(2,30) <= 1
 0 <= x(21,25) <= 1
 0 <= x(6,31) <= 1
 0 <= x(0,2) <= 1
 0 <= x(20,34) <= 1
 0 <= x(0,6) <= 1
 0 <= x(1,7) <= 1
 0 <= x(1,31) <= 1
 0 <= x(0,31) <= 1
 0 <= x(14,29) <= 1
 0 <= x(2,9) <= 1
 0 <= x(34,27) <= 1
 0 <= x(33,0) <= 1
 0 <= x(25,18) <= 1
 0 <= x(4,0) <= 1
 0 <= x(24,17) <= 1
 0 <= x(22,11) <= 1
 0 <= x(19,5) <= 1
 0 <= x(33,29) <= 1
 0 <= x(23,4) <= 1
 0 <= x(26,10) <= 1
 0 <= x(18,13) <= 1
 0 <= x(21,19) <= 1
 0 <= x(30,6) <= 1
 0 <= x(32,24) <= 1
 0 <= x(27,13) <= 1
 0 <= x(28,12) <= 1
 0 <= x(26,3) <= 1
 0 <= x(22,20) <= 1
 0 <= x(9,8) <= 1
 0 <= x(21,1) <= 1
 0 <= x(33,23) <= 1
 0 <= x(23,20) <= 1
 0 <= x(28,6) <= 1
 0 <= x(21,3) <= 1
 0 <= x(7,4) <= 1
 0 <= x(26,23) <= 1
 0 <= x(27,23) <= 1
 0 <= x(6,2) <= 1
 0 <= x(33,31) <= 1
 0 <= x(6,4) <= 1
 0 <= x(13,6) <= 1
 0 <= x(24,15) <= 1
 0 <= x(25,14) <= 1
 0 <= x(8,7) <= 1
 0 <= x(11,8) <= 1
 0 <= x(32,2) <= 1
 0 <= x(30,12) <= 1
 0 <= x(6,1) <= 1
 0 <= x(9,1) <= 1
 0 <= x(15,8) <= 1
 0 <= x(17,2) <= 1
 0 <= x(16,5) <= 1
 0 <= x(15,13) <= 1
 0 <= x(22,13) <= 1
 0 <= x(27,21) <= 1
 0 <= x(30,10) <= 1
 0 <= x(19,4) <= 1
 0 <= x(23,15) <= 1
 0 <= x(30,2) <= 1
 0 <= x(25,21) <= 1
 0 <= x(31,6) <= 1
 0 <= x(2,0) <= 1
 0 <= x(34,20) <= 1
 0 <= x(6,0) <= 1
 0 <= x(7,1) <= 1
 0 <= x(31,1) <= 1
 0 <= x(31,0) <= 1
 0 <= x(29,14) <= 1
 0 <= x(9,2) <= 1
 0 <= x(35,0) <= 1
 0 <= x(35,1) <= 1
 0 <= x(35,2) <= 1
 0 <= x(35,3) <= 1
 0 <= x(35,4) <= 1
 0 <= x(35,5) <= 1
 0 <= x(35,6) <= 1
 0 <= x(35,7) <= 1
 0 <= x(35,8) <= 1
 0 <= x(35,9) <= 1
 0 <= x(35,10) <= 1
 0 <= x(35,11) <= 1
 0 <= x(35,12) <= 1
 0 <= x(35,13) <= 1
 0 <= x(35,14) <= 1
 0 <= x(35,15) <= 1
 0 <= x(35,16) <= 1
 0 <= x(35,17) <= 1
 0 <= x(35,18) <= 1
 0 <= x(35,19) <= 1
 0 <= x(35,20) <= 1
 0 <= x(35,21) <= 1
 0 <= x(35,22) <= 1
 0 <= x(35,23) <= 1
 0 <= x(35,24) <= 1
 0 <= x(35,25) <= 1
 0 <= x(35,26) <= 1
 0 <= x(35,27) <= 1
 0 <= x(35,28) <= 1
 0 <= x(35,29) <= 1
 0 <= x(35,30) <= 1
 0 <= x(35,31) <= 1
 0 <= x(35,32) <= 1
 0 <= x(35,33) <= 1
 0 <= x(35,34) <= 1
 0 <= y(0) <= 1
 0 <= y(1) <= 1
 0 <= y(2) <= 1
 0 <= y(3) <= 1
 0 <= y(4) <= 1
 0 <= y(5) <= 1
 0 <= y(6) <= 1
 0 <= y(7) <= 1
 0 <= y(8) <= 1
 0 <= y(9) <= 1
 0 <= y(10) <= 1
 0 <= y(11) <= 1
 0 <= y(12) <= 1
 0 <= y(13) <= 1
 0 <= y(14) <= 1
 0 <= y(15) <= 1
 0 <= y(16) <= 1
 0 <= y(17) <= 1
 0 <= y(18) <= 1
 0 <= y(19) <= 1
 0 <= y(20) <= 1
 0 <= y(21) <= 1
 0 <= y(22) <= 1
 0 <= y(23) <= 1
 0 <= y(24) <= 1
 0 <= y(25) <= 1
 0 <= y(26) <= 1
 0 <= y(27) <= 1
 0 <= y(28) <= 1
 0 <= y(29) <= 1
 0 <= y(30) <= 1
 0 <= y(31) <= 1
 0 <= y(32) <= 1
 0 <= y(33) <= 1
 0 <= y(34) <= 1
Binaries
 x(27,34)  x(0,33)  x(18,25)  x(0,4)  x(17,24)  x(11,22)  x(5,19)  x(29,33) 
 x(4,23)  x(10,26)  x(13,18)  x(19,21)  x(6,30)  x(24,32)  x(13,27)  x(12,28) 
 x(3,26)  x(20,22)  x(8,9)  x(1,21)  x(23,33)  x(20,23)  x(6,28)  x(3,21) 
 x(4,7)  x(23,26)  x(23,27)  x(2,6)  x(31,33)  x(4,6)  x(6,13)  x(15,24) 
 x(14,25)  x(7,8)  x(8,11)  x(2,32)  x(12,30)  x(1,6)  x(1,9)  x(8,15) 
 x(2,17)  x(5,16)  x(13,15)  x(13,22)  x(21,27)  x(10,30)  x(4,19)  x(15,23) 
 x(2,30)  x(21,25)  x(6,31)  x(0,2)  x(20,34)  x(0,6)  x(1,7)  x(1,31) 
 x(0,31)  x(14,29)  x(2,9)  x(34,27)  x(33,0)  x(25,18)  x(4,0)  x(24,17) 
 x(22,11)  x(19,5)  x(33,29)  x(23,4)  x(26,10)  x(18,13)  x(21,19)  x(30,6) 
 x(32,24)  x(27,13)  x(28,12)  x(26,3)  x(22,20)  x(9,8)  x(21,1)  x(33,23) 
 x(23,20)  x(28,6)  x(21,3)  x(7,4)  x(26,23)  x(27,23)  x(6,2)  x(33,31) 
 x(6,4)  x(13,6)  x(24,15)  x(25,14)  x(8,7)  x(11,8)  x(32,2)  x(30,12) 
 x(6,1)  x(9,1)  x(15,8)  x(17,2)  x(16,5)  x(15,13)  x(22,13)  x(27,21) 
 x(30,10)  x(19,4)  x(23,15)  x(30,2)  x(25,21)  x(31,6)  x(2,0)  x(34,20) 
 x(6,0)  x(7,1)  x(31,1)  x(31,0)  x(29,14)  x(9,2)  x(35,0)  x(35,1)  x(35,2) 
 x(35,3)  x(35,4)  x(35,5)  x(35,6)  x(35,7)  x(35,8)  x(35,9)  x(35,10) 
 x(35,11)  x(35,12)  x(35,13)  x(35,14)  x(35,15)  x(35,16)  x(35,17) 
 x(35,18)  x(35,19)  x(35,20)  x(35,21)  x(35,22)  x(35,23)  x(35,24) 
 x(35,25)  x(35,26)  x(35,27)  x(35,28)  x(35,29)  x(35,30)  x(35,31) 
 x(35,32)  x(35,33)  x(35,34)  y(0)  y(1)  y(2)  y(3)  y(4)  y(5)  y(6)  y(7) 
 y(8)  y(9)  y(10)  y(11)  y(12)  y(13)  y(14)  y(15)  y(16)  y(17)  y(18) 
 y(19)  y(20)  y(21)  y(22)  y(23)  y(24)  y(25)  y(26)  y(27)  y(28)  y(29) 
 y(30)  y(31)  y(32)  y(33)  y(34) 
End
